\ENCODING=ISO-8859-1
\Problem name: Noise_Opt_Model

Minimize
 obj: 310 G_01,01_00 + 200 G_01,02_00 + 310 G_02,01_00 + 200 G_02,02_00
      + 310 G_03,01_00 + 200 G_03,02_00 + 310 G_04,01_00 + 200 G_04,02_00
      + 310 G_05,01_00 + 200 G_05,02_00 + 310 G_06,01_00 + 200 G_06,02_00
      + 310 G_07,01_00 + 200 G_07,02_00 + 310 G_08,01_00 + 200 G_08,02_00
      + 310 G_09,01_00 + 200 G_09,02_00 + 310 G_10,01_00 + 200 G_10,02_00
Subject To
 NLSC_1_1:  1571 G_01,01_00 + 571 G_01,02_00 + 571 G_02,01_00 + 571 G_02,02_00
            + 571 G_03,01_00 + 571 G_03,02_00 + 571 G_04,01_00 + 571 G_04,02_00
            + 571 G_05,01_00 + 571 G_05,02_00 + 571 G_06,01_00 + 571 G_06,02_00
            + 571 G_07,01_00 + 571 G_07,02_00 + 571 G_08,01_00 + 571 G_08,02_00
            + 571 G_09,01_00 + 571 G_09,02_00 + 571 G_10,01_00 + 571 G_10,02_00
            - RgNLSC_1_1  = 0
 NLSC_2_1:  - 478 G_01,01_00 + 522 G_01,02_00 - 478 G_02,01_00 - 478 G_02,02_00
            - 478 G_03,01_00 - 478 G_03,02_00 - 478 G_04,01_00 - 478 G_04,02_00
            - 478 G_05,01_00 - 478 G_05,02_00 - 478 G_06,01_00 - 478 G_06,02_00
            - 478 G_07,01_00 - 478 G_07,02_00 - 478 G_08,01_00 - 478 G_08,02_00
            - 478 G_09,01_00 - 478 G_09,02_00 - 478 G_10,01_00 - 478 G_10,02_00
            - RgNLSC_2_1  = 0
 NLSC_3_1:  438 G_01,01_00 + 438 G_01,02_00 + 1438 G_02,01_00 + 438 G_02,02_00
            + 438 G_03,01_00 + 438 G_03,02_00 + 438 G_04,01_00 + 438 G_04,02_00
            + 438 G_05,01_00 + 438 G_05,02_00 + 438 G_06,01_00 + 438 G_06,02_00
            + 438 G_07,01_00 + 438 G_07,02_00 + 438 G_08,01_00 + 438 G_08,02_00
            + 438 G_09,01_00 + 438 G_09,02_00 + 438 G_10,01_00 + 438 G_10,02_00
            - RgNLSC_3_1  = 0
 NLSC_4_1:  - 438 G_01,01_00 - 438 G_01,02_00 - 438 G_02,01_00 + 562 G_02,02_00
            - 438 G_03,01_00 - 438 G_03,02_00 - 438 G_04,01_00 - 438 G_04,02_00
            - 438 G_05,01_00 - 438 G_05,02_00 - 438 G_06,01_00 - 438 G_06,02_00
            - 438 G_07,01_00 - 438 G_07,02_00 - 438 G_08,01_00 - 438 G_08,02_00
            - 438 G_09,01_00 - 438 G_09,02_00 - 438 G_10,01_00 - 438 G_10,02_00
            - RgNLSC_4_1  = 0
 NLSC_5_1:  518 G_01,01_00 + 518 G_01,02_00 + 518 G_02,01_00 + 518 G_02,02_00
            + 1518 G_03,01_00 + 518 G_03,02_00 + 518 G_04,01_00
            + 518 G_04,02_00 + 518 G_05,01_00 + 518 G_05,02_00 + 518 G_06,01_00
            + 518 G_06,02_00 + 518 G_07,01_00 + 518 G_07,02_00 + 518 G_08,01_00
            + 518 G_08,02_00 + 518 G_09,01_00 + 518 G_09,02_00 + 518 G_10,01_00
            + 518 G_10,02_00 - RgNLSC_5_1  = 0
 NLSC_6_1:  - 538 G_01,01_00 - 538 G_01,02_00 - 538 G_02,01_00 - 538 G_02,02_00
            - 538 G_03,01_00 + 462 G_03,02_00 - 538 G_04,01_00 - 538 G_04,02_00
            - 538 G_05,01_00 - 538 G_05,02_00 - 538 G_06,01_00 - 538 G_06,02_00
            - 538 G_07,01_00 - 538 G_07,02_00 - 538 G_08,01_00 - 538 G_08,02_00
            - 538 G_09,01_00 - 538 G_09,02_00 - 538 G_10,01_00 - 538 G_10,02_00
            - RgNLSC_6_1  = 0
 NLSC_7_1:  - 123 G_01,01_00 - 123 G_01,02_00 - 123 G_02,01_00 - 123 G_02,02_00
            - 123 G_03,01_00 - 123 G_03,02_00 + 877 G_04,01_00 - 123 G_04,02_00
            - 123 G_05,01_00 - 123 G_05,02_00 - 123 G_06,01_00 - 123 G_06,02_00
            - 123 G_07,01_00 - 123 G_07,02_00 - 123 G_08,01_00 - 123 G_08,02_00
            - 123 G_09,01_00 - 123 G_09,02_00 - 123 G_10,01_00 - 123 G_10,02_00
            - RgNLSC_7_1  = 0
 NLSC_8_1:  163 G_01,01_00 + 163 G_01,02_00 + 163 G_02,01_00 + 163 G_02,02_00
            + 163 G_03,01_00 + 163 G_03,02_00 + 163 G_04,01_00
            + 1163 G_04,02_00 + 163 G_05,01_00 + 163 G_05,02_00
            + 163 G_06,01_00 + 163 G_06,02_00 + 163 G_07,01_00 + 163 G_07,02_00
            + 163 G_08,01_00 + 163 G_08,02_00 + 163 G_09,01_00 + 163 G_09,02_00
            + 163 G_10,01_00 + 163 G_10,02_00 - RgNLSC_8_1  = 0
 NLSC_9_1:  - 779 G_01,01_00 - 779 G_01,02_00 - 779 G_02,01_00 - 779 G_02,02_00
            - 779 G_03,01_00 - 779 G_03,02_00 - 779 G_04,01_00 - 779 G_04,02_00
            + 221 G_05,01_00 - 779 G_05,02_00 - 779 G_06,01_00 - 779 G_06,02_00
            - 779 G_07,01_00 - 779 G_07,02_00 - 779 G_08,01_00 - 779 G_08,02_00
            - 779 G_09,01_00 - 779 G_09,02_00 - 779 G_10,01_00 - 779 G_10,02_00
            - RgNLSC_9_1  = 0
 NLSC_10_1: - 150 G_01,01_00 - 150 G_01,02_00 - 150 G_02,01_00 - 150 G_02,02_00
            - 150 G_03,01_00 - 150 G_03,02_00 - 150 G_04,01_00 - 150 G_04,02_00
            - 150 G_05,01_00 + 850 G_05,02_00 - 150 G_06,01_00 - 150 G_06,02_00
            - 150 G_07,01_00 - 150 G_07,02_00 - 150 G_08,01_00 - 150 G_08,02_00
            - 150 G_09,01_00 - 150 G_09,02_00 - 150 G_10,01_00 - 150 G_10,02_00
            - RgNLSC_10_1  = 0
 NLSC_1_2:  571 G_01,01_00 + 571 G_01,02_00 + 571 G_02,01_00 + 571 G_02,02_00
            + 571 G_03,01_00 + 571 G_03,02_00 + 571 G_04,01_00 + 571 G_04,02_00
            + 571 G_05,01_00 + 571 G_05,02_00 + 1571 G_06,01_00
            + 571 G_06,02_00 + 571 G_07,01_00 + 571 G_07,02_00 + 571 G_08,01_00
            + 571 G_08,02_00 + 571 G_09,01_00 + 571 G_09,02_00 + 571 G_10,01_00
            + 571 G_10,02_00 - RgNLSC_1_2  = 0
 NLSC_2_2:  - 478 G_01,01_00 - 478 G_01,02_00 - 478 G_02,01_00 - 478 G_02,02_00
            - 478 G_03,01_00 - 478 G_03,02_00 - 478 G_04,01_00 - 478 G_04,02_00
            - 478 G_05,01_00 - 478 G_05,02_00 - 478 G_06,01_00 + 522 G_06,02_00
            - 478 G_07,01_00 - 478 G_07,02_00 - 478 G_08,01_00 - 478 G_08,02_00
            - 478 G_09,01_00 - 478 G_09,02_00 - 478 G_10,01_00 - 478 G_10,02_00
            - RgNLSC_2_2  = 0
 NLSC_3_2:  438 G_01,01_00 + 438 G_01,02_00 + 438 G_02,01_00 + 438 G_02,02_00
            + 438 G_03,01_00 + 438 G_03,02_00 + 438 G_04,01_00 + 438 G_04,02_00
            + 438 G_05,01_00 + 438 G_05,02_00 + 438 G_06,01_00 + 438 G_06,02_00
            + 1438 G_07,01_00 + 438 G_07,02_00 + 438 G_08,01_00
            + 438 G_08,02_00 + 438 G_09,01_00 + 438 G_09,02_00 + 438 G_10,01_00
            + 438 G_10,02_00 - RgNLSC_3_2  = 0
 NLSC_4_2:  - 438 G_01,01_00 - 438 G_01,02_00 - 438 G_02,01_00 - 438 G_02,02_00
            - 438 G_03,01_00 - 438 G_03,02_00 - 438 G_04,01_00 - 438 G_04,02_00
            - 438 G_05,01_00 - 438 G_05,02_00 - 438 G_06,01_00 - 438 G_06,02_00
            - 438 G_07,01_00 + 562 G_07,02_00 - 438 G_08,01_00 - 438 G_08,02_00
            - 438 G_09,01_00 - 438 G_09,02_00 - 438 G_10,01_00 - 438 G_10,02_00
            - RgNLSC_4_2  = 0
 NLSC_5_2:  518 G_01,01_00 + 518 G_01,02_00 + 518 G_02,01_00 + 518 G_02,02_00
            + 518 G_03,01_00 + 518 G_03,02_00 + 518 G_04,01_00 + 518 G_04,02_00
            + 518 G_05,01_00 + 518 G_05,02_00 + 518 G_06,01_00 + 518 G_06,02_00
            + 518 G_07,01_00 + 518 G_07,02_00 + 1518 G_08,01_00
            + 518 G_08,02_00 + 518 G_09,01_00 + 518 G_09,02_00 + 518 G_10,01_00
            + 518 G_10,02_00 - RgNLSC_5_2  = 0
 NLSC_6_2:  - 538 G_01,01_00 - 538 G_01,02_00 - 538 G_02,01_00 - 538 G_02,02_00
            - 538 G_03,01_00 - 538 G_03,02_00 - 538 G_04,01_00 - 538 G_04,02_00
            - 538 G_05,01_00 - 538 G_05,02_00 - 538 G_06,01_00 - 538 G_06,02_00
            - 538 G_07,01_00 - 538 G_07,02_00 - 538 G_08,01_00 + 462 G_08,02_00
            - 538 G_09,01_00 - 538 G_09,02_00 - 538 G_10,01_00 - 538 G_10,02_00
            - RgNLSC_6_2  = 0
 NLSC_7_2:  - 123 G_01,01_00 - 123 G_01,02_00 - 123 G_02,01_00 - 123 G_02,02_00
            - 123 G_03,01_00 - 123 G_03,02_00 - 123 G_04,01_00 - 123 G_04,02_00
            - 123 G_05,01_00 - 123 G_05,02_00 - 123 G_06,01_00 - 123 G_06,02_00
            - 123 G_07,01_00 - 123 G_07,02_00 - 123 G_08,01_00 - 123 G_08,02_00
            + 877 G_09,01_00 - 123 G_09,02_00 - 123 G_10,01_00 - 123 G_10,02_00
            - RgNLSC_7_2  = 0
 NLSC_8_2:  163 G_01,01_00 + 163 G_01,02_00 + 163 G_02,01_00 + 163 G_02,02_00
            + 163 G_03,01_00 + 163 G_03,02_00 + 163 G_04,01_00 + 163 G_04,02_00
            + 163 G_05,01_00 + 163 G_05,02_00 + 163 G_06,01_00 + 163 G_06,02_00
            + 163 G_07,01_00 + 163 G_07,02_00 + 163 G_08,01_00 + 163 G_08,02_00
            + 163 G_09,01_00 + 1163 G_09,02_00 + 163 G_10,01_00
            + 163 G_10,02_00 - RgNLSC_8_2  = 0
 NLSC_9_2:  - 779 G_01,01_00 - 779 G_01,02_00 - 779 G_02,01_00 - 779 G_02,02_00
            - 779 G_03,01_00 - 779 G_03,02_00 - 779 G_04,01_00 - 779 G_04,02_00
            - 779 G_05,01_00 - 779 G_05,02_00 - 779 G_06,01_00 - 779 G_06,02_00
            - 779 G_07,01_00 - 779 G_07,02_00 - 779 G_08,01_00 - 779 G_08,02_00
            - 779 G_09,01_00 - 779 G_09,02_00 + 221 G_10,01_00 - 779 G_10,02_00
            - RgNLSC_9_2  = 0
 NLSC_10_2: - 150 G_01,01_00 - 150 G_01,02_00 - 150 G_02,01_00 - 150 G_02,02_00
            - 150 G_03,01_00 - 150 G_03,02_00 - 150 G_04,01_00 - 150 G_04,02_00
            - 150 G_05,01_00 - 150 G_05,02_00 - 150 G_06,01_00 - 150 G_06,02_00
            - 150 G_07,01_00 - 150 G_07,02_00 - 150 G_08,01_00 - 150 G_08,02_00
            - 150 G_09,01_00 - 150 G_09,02_00 - 150 G_10,01_00 + 850 G_10,02_00
            - RgNLSC_10_2  = 0
Bounds
      G_01,01_00 >= 0
      G_01,02_00 >= 0
      G_02,01_00 >= 0
      G_02,02_00 >= 0
      G_03,01_00 >= 0
      G_03,02_00 >= 0
      G_04,01_00 >= 0
      G_04,02_00 >= 0
      G_05,01_00 >= 0
      G_05,02_00 >= 0
      G_06,01_00 >= 0
      G_06,02_00 >= 0
      G_07,01_00 >= 0
      G_07,02_00 >= 0
      G_08,01_00 >= 0
      G_08,02_00 >= 0
      G_09,01_00 >= 0
      G_09,02_00 >= 0
      G_10,01_00 >= 0
      G_10,02_00 >= 0
 0 <= RgNLSC_1_1 <= 1000
 0 <= RgNLSC_2_1 <= 1000
 0 <= RgNLSC_3_1 <= 1000
 0 <= RgNLSC_4_1 <= 1000
 0 <= RgNLSC_5_1 <= 1000
 0 <= RgNLSC_6_1 <= 1000
 0 <= RgNLSC_7_1 <= 1000
 0 <= RgNLSC_8_1 <= 1000
 0 <= RgNLSC_9_1 <= 1000
 0 <= RgNLSC_10_1 <= 1000
 0 <= RgNLSC_1_2 <= 1000
 0 <= RgNLSC_2_2 <= 1000
 0 <= RgNLSC_3_2 <= 1000
 0 <= RgNLSC_4_2 <= 1000
 0 <= RgNLSC_5_2 <= 1000
 0 <= RgNLSC_6_2 <= 1000
 0 <= RgNLSC_7_2 <= 1000
 0 <= RgNLSC_8_2 <= 1000
 0 <= RgNLSC_9_2 <= 1000
 0 <= RgNLSC_10_2 <= 1000
Generals
 G_01,01_00  G_01,02_00  G_02,01_00  G_02,02_00  G_03,01_00  G_03,02_00 
 G_04,01_00  G_04,02_00  G_05,01_00  G_05,02_00  G_06,01_00  G_06,02_00 
 G_07,01_00  G_07,02_00  G_08,01_00  G_08,02_00  G_09,01_00  G_09,02_00 
 G_10,01_00  G_10,02_00 
End
